linear programming/gurobi/nested L-shape/iter7_main.lp
\ LP format - for model browsing. Use MPS format to capture full model detail.
Minimize
  q_1 + theta_2
Subject To
 R0: 10 q_1 + theta_2 >= -300
 R1: - q_1 + theta_2 >= -375.875
 R2: 8.625 q_1 + theta_2 >= -172.1785714285714
 R3: - q_1 + theta_2 >= -266.1381578947369
 R4: 4.5 q_1 + theta_2 >= -194.4181034482758
 R5: 0.375 q_1 + theta_2 >= -239.7931034482758
Bounds
 theta_2 >= -600
End
