linear programming/gurobi/nested L-shape/iter7_main.sol
# Objective value = -2.3291810344827584e+02
q_1 11
theta_2 -2.4391810344827584e+02
